NAME : 50_5_04.76993.tour
COMMENT : Cost = 0_76993
COMMENT : Found by LKH [Keld Helsgaun] Thu Sep 14 11:11:24 2017
TYPE : TOUR
DIMENSION : 55
TOUR_SECTION
1
3
10
6
18
46
51
50
47
8
24
52
11
43
39
7
4
54
9
40
30
37
27
34
26
36
33
32
38
28
31
29
42
41
44
45
35
55
25
23
13
15
17
12
14
16
48
49
22
20
21
19
53
5
2
-1
EOF
